# Solution for model cvrp_geo_clustered
# Objective value = 2.0237500000000004e+04
x0_1 1
x0_2 0
x0_3 1
x0_4 0
x0_5 0
x0_6 1
x0_7 0
x0_8 0
x0_9 0
x0_10 0
x0_11 0
x0_12 0
x0_13 0
x0_14 0
x0_15 0
x1_0 0
x1_2 0
x1_3 0
x1_4 0
x1_5 0
x1_6 0
x1_7 0
x1_8 0
x1_9 0
x1_10 0
x1_11 0
x1_12 0
x1_13 1
x1_14 0
x1_15 0
x2_0 1
x2_1 0
x2_3 0
x2_4 0
x2_5 0
x2_6 0
x2_7 0
x2_8 0
x2_9 0
x2_10 0
x2_11 0
x2_12 0
x2_13 0
x2_14 0
x2_15 0
x3_0 0
x3_1 0
x3_2 0
x3_4 0
x3_5 0
x3_6 0
x3_7 0
x3_8 0
x3_9 0
x3_10 0
x3_11 0
x3_12 1
x3_13 0
x3_14 0
x3_15 0
x4_0 0
x4_1 0
x4_2 0
x4_3 0
x4_5 0
x4_6 0
x4_7 0
x4_8 0
x4_9 0
x4_10 0
x4_11 0
x4_12 0
x4_13 0
x4_14 0
x4_15 1
x5_0 0
x5_1 0
x5_2 0
x5_3 0
x5_4 0
x5_6 0
x5_7 0
x5_8 1
x5_9 0
x5_10 0
x5_11 0
x5_12 0
x5_13 0
x5_14 0
x5_15 0
x6_0 0
x6_1 0
x6_2 0
x6_3 0
x6_4 0
x6_5 0
x6_7 0
x6_8 0
x6_9 0
x6_10 0
x6_11 0
x6_12 0
x6_13 0
x6_14 1
x6_15 0
x7_0 0
x7_1 0
x7_2 0
x7_3 0
x7_4 1
x7_5 0
x7_6 0
x7_8 0
x7_9 0
x7_10 0
x7_11 0
x7_12 0
x7_13 0
x7_14 0
x7_15 0
x8_0 0
x8_1 0
x8_2 1
x8_3 0
x8_4 0
x8_5 0
x8_6 0
x8_7 0
x8_9 0
x8_10 0
x8_11 0
x8_12 0
x8_13 0
x8_14 0
x8_15 0
x9_0 1
x9_1 0
x9_2 0
x9_3 0
x9_4 0
x9_5 0
x9_6 0
x9_7 0
x9_8 0
x9_10 0
x9_11 0
x9_12 0
x9_13 0
x9_14 0
x9_15 0
x10_0 1
x10_1 0
x10_2 0
x10_3 0
x10_4 0
x10_5 0
x10_6 0
x10_7 0
x10_8 0
x10_9 0
x10_11 0
x10_12 0
x10_13 0
x10_14 0
x10_15 0
x11_0 0
x11_1 0
x11_2 0
x11_3 0
x11_4 0
x11_5 1
x11_6 0
x11_7 0
x11_8 0
x11_9 0
x11_10 0
x11_12 0
x11_13 0
x11_14 0
x11_15 0
x12_0 0
x12_1 0
x12_2 0
x12_3 0
x12_4 0
x12_5 0
x12_6 0
x12_7 0
x12_8 0
x12_9 0
x12_10 1
x12_11 0
x12_13 0
x12_14 0
x12_15 0
x13_0 0
x13_1 0
x13_2 0
x13_3 0
x13_4 0
x13_5 0
x13_6 0
x13_7 1
x13_8 0
x13_9 0
x13_10 0
x13_11 0
x13_12 0
x13_14 0
x13_15 0
x14_0 0
x14_1 0
x14_2 0
x14_3 0
x14_4 0
x14_5 0
x14_6 0
x14_7 0
x14_8 0
x14_9 0
x14_10 0
x14_11 1
x14_12 0
x14_13 0
x14_15 0
x15_0 0
x15_1 0
x15_2 0
x15_3 0
x15_4 0
x15_5 0
x15_6 0
x15_7 0
x15_8 0
x15_9 1
x15_10 0
x15_11 0
x15_12 0
x15_13 0
x15_14 0
u1 3
u2 20
u3 3
u4 13
u5 13
u6 3
u7 9
u8 16
u9 20
u10 20
u11 8
u12 6
u13 6
u14 5
u15 17
